NAME          DCAP_3_4_2_500_SS298
ROWS
 N  OBJ
 L  CON1
 L  CON2
 L  CON3
 L  CON4
 L  CON5
 L  CON6
 L  CON7
 L  CON8
 L  CON9
 L  CON10
 L  CON11
 L  CON12
 E  CON13
 E  CON14
 E  CON15
 E  CON16
 E  CON17
 E  CON18
 E  CON19
 E  CON20
COLUMNS
    x[1,1]    OBJ       6.180167      CON1      1.000000    
    x[1,1]    CON7      -1.000000     CON8      -1.000000   
    x[1,2]    OBJ       5.039546      CON2      1.000000    
    x[1,2]    CON8      -1.000000   
    x[2,1]    OBJ       6.732585      CON3      1.000000    
    x[2,1]    CON9      -1.000000     CON10     -1.000000   
    x[2,2]    OBJ       7.443064      CON4      1.000000    
    x[2,2]    CON10     -1.000000   
    x[3,1]    OBJ       6.563535      CON5      1.000000    
    x[3,1]    CON11     -1.000000     CON12     -1.000000   
    x[3,2]    OBJ       6.054841      CON6      1.000000    
    x[3,2]    CON12     -1.000000   
    MARKER    'MARKER'                'INTORG'
    u[1,1]    OBJ       48.076654     CON1      -1.000000   
    u[1,2]    OBJ       49.466655     CON2      -1.000000   
    u[2,1]    OBJ       49.996186     CON3      -1.000000   
    u[2,2]    OBJ       32.230043     CON4      -1.000000   
    u[3,1]    OBJ       20.066487     CON5      -1.000000   
    u[3,2]    OBJ       27.484319     CON6      -1.000000   
    y[1,1,1]  OBJ       5.946749      CON7      1.163439    
    y[1,1,1]  CON13     1.000000    
    y[1,1,2]  OBJ       8.245670      CON8      0.540410    
    y[1,1,2]  CON14     1.000000    
    y[1,2,1]  OBJ       8.403409      CON7      1.353326    
    y[1,2,1]  CON15     1.000000    
    y[1,2,2]  OBJ       9.451963      CON8      1.293864    
    y[1,2,2]  CON16     1.000000    
    y[1,3,1]  OBJ       5.418263      CON7      1.499975    
    y[1,3,1]  CON17     1.000000    
    y[1,3,2]  OBJ       8.335208      CON8      1.020292    
    y[1,3,2]  CON18     1.000000    
    y[1,4,1]  OBJ       5.910753      CON7      1.371960    
    y[1,4,1]  CON19     1.000000    
    y[1,4,2]  OBJ       7.367338      CON8      0.907421    
    y[1,4,2]  CON20     1.000000    
    y[2,1,1]  OBJ       7.383520      CON9      1.163439    
    y[2,1,1]  CON13     1.000000    
    y[2,1,2]  OBJ       9.938999      CON10     0.540410    
    y[2,1,2]  CON14     1.000000    
    y[2,2,1]  OBJ       5.450923      CON9      1.353326    
    y[2,2,1]  CON15     1.000000    
    y[2,2,2]  OBJ       6.539326      CON10     1.293864    
    y[2,2,2]  CON16     1.000000    
    y[2,3,1]  OBJ       8.751478      CON9      1.499975    
    y[2,3,1]  CON17     1.000000    
    y[2,3,2]  OBJ       5.218391      CON10     1.020292    
    y[2,3,2]  CON18     1.000000    
    y[2,4,1]  OBJ       8.580339      CON9      1.371960    
    y[2,4,1]  CON19     1.000000    
    y[2,4,2]  OBJ       5.766912      CON10     0.907421    
    y[2,4,2]  CON20     1.000000    
    y[3,1,1]  OBJ       6.225394      CON11     1.163439    
    y[3,1,1]  CON13     1.000000    
    y[3,1,2]  OBJ       5.392804      CON12     0.540410    
    y[3,1,2]  CON14     1.000000    
    y[3,2,1]  OBJ       5.932687      CON11     1.353326    
    y[3,2,1]  CON15     1.000000    
    y[3,2,2]  OBJ       5.128378      CON12     1.293864    
    y[3,2,2]  CON16     1.000000    
    y[3,3,1]  OBJ       5.539676      CON11     1.499975    
    y[3,3,1]  CON17     1.000000    
    y[3,3,2]  OBJ       5.518415      CON12     1.020292    
    y[3,3,2]  CON18     1.000000    
    y[3,4,1]  OBJ       7.805099      CON11     1.371960    
    y[3,4,1]  CON19     1.000000    
    y[3,4,2]  OBJ       9.144740      CON12     0.907421    
    y[3,4,2]  CON20     1.000000    
    z[1,1]    OBJ       571.114567    CON13     1.000000    
    z[1,2]    OBJ       756.755098    CON14     1.000000    
    z[2,1]    OBJ       594.794917    CON15     1.000000    
    z[2,2]    OBJ       830.840878    CON16     1.000000    
    z[3,1]    OBJ       900.516907    CON17     1.000000    
    z[3,2]    OBJ       633.512272    CON18     1.000000    
    z[4,1]    OBJ       644.053451    CON19     1.000000    
    z[4,2]    OBJ       896.064005    CON20     1.000000    
    MARKER    'MARKER'                 'INTEND'
RHS
    RHS       CON1      -0.000000     CON2      -0.000000   
    RHS       CON3      -0.000000     CON4      -0.000000   
    RHS       CON5      -0.000000     CON6      -0.000000   
    RHS       CON7      -0.000000     CON8      -0.000000   
    RHS       CON9      -0.000000     CON10     -0.000000   
    RHS       CON11     -0.000000     CON12     -0.000000   
    RHS       CON13     1.000000      CON14     1.000000    
    RHS       CON15     1.000000      CON16     1.000000    
    RHS       CON17     1.000000      CON18     1.000000    
    RHS       CON19     1.000000      CON20     1.000000    
BOUNDS
 BV BOUND     u[1,1]  
 BV BOUND     u[1,2]  
 BV BOUND     u[2,1]  
 BV BOUND     u[2,2]  
 BV BOUND     u[3,1]  
 BV BOUND     u[3,2]  
 BV BOUND     y[1,1,1]
 BV BOUND     y[1,1,2]
 BV BOUND     y[1,2,1]
 BV BOUND     y[1,2,2]
 BV BOUND     y[1,3,1]
 BV BOUND     y[1,3,2]
 BV BOUND     y[1,4,1]
 BV BOUND     y[1,4,2]
 BV BOUND     y[2,1,1]
 BV BOUND     y[2,1,2]
 BV BOUND     y[2,2,1]
 BV BOUND     y[2,2,2]
 BV BOUND     y[2,3,1]
 BV BOUND     y[2,3,2]
 BV BOUND     y[2,4,1]
 BV BOUND     y[2,4,2]
 BV BOUND     y[3,1,1]
 BV BOUND     y[3,1,2]
 BV BOUND     y[3,2,1]
 BV BOUND     y[3,2,2]
 BV BOUND     y[3,3,1]
 BV BOUND     y[3,3,2]
 BV BOUND     y[3,4,1]
 BV BOUND     y[3,4,2]
 BV BOUND     z[1,1]  
 BV BOUND     z[1,2]  
 BV BOUND     z[2,1]  
 BV BOUND     z[2,2]  
 BV BOUND     z[3,1]  
 BV BOUND     z[3,2]  
 BV BOUND     z[4,1]  
 BV BOUND     z[4,2]  
ENDATA
